49	53	74	20	74	17	20	3	55	85	87	46	42	90	8	19	95	95	9	27
48	49	19	72	44	39	42	12	3	5	28	56	99	25	37	73	75	71	62	64
35	9	12	70	19	97	17	32	48	49	38	19	86	32	64	15	46	74	65	13
78	56	67	18	30	35	37	58	66	56	9	85	45	23	87	23	55	20	13	9
92	27	32	87	72	68	74	46	16	2	4	61	48	90	21	94	14	84	78	85
